Maximize
score: + 7658.183 c0 + 2047.03 c1 + 772.081 c2 + 82.387 c3 + 160.375 c4 + 95.516 c5 + 74.172 c6 + 188.583 c7 + 39.914 c8 + 100.315 c9 + 82.694 c10 + 79.504 c11 + 93.35 c12 + 109.334 c13 + 27.167 c14 + 102.89 c15 + 64.187 c16 + 55.245 c17 + 14.034 c18 + 23.49 c19 + 5.908 c20 + 42.002 c21 + 23.58 c22 + 65.563 c23 + 99.814 c24 + 34.052 c25 + 17.425 c26 + 1.809 c27 + 29.469 c28 + 9.128 c29 + 39.822 c30 + 51.936 c31 + 104.071 c32 + 11.614 c33 + 4.383 c34 + 25.454 c35 + 11.13 c36 + 15.583 c37 + 138.676 c38 + 95.698 c39 + 85.613 c40 + 39.838 c41 + 10.367 c42 + 53.458 c43 + 5.975 c44 + 163.973 c45 + 6.164 c46 + 32.582 c47 + 420.371 c48 + 181.768 c49 + 272.544 c50 + 2.373 c51 + 481.027 c52 + 4.755 c53 + 229.135 c54 + 462.469 c55 + 15.891 c56 + 14.879 c57 + 9.609 c58 + 5.466 c59 + 10.037 c60 + 11.999 c61 + 26.766 c62 + 24.233 c63 + 8.807 c64 + 18.947 c65 + 6.533 c66 + 1.657 c67 + 35.999 c68 + 60.27 c69 + 5.104 c70 + 4.393 c71 + 32.425 c72 + 8.245 c73 + 22.966 c74 + 10.372 c75 + 3.726 c76 + 8.28 c77 + 35.684 c78 + 2.433 c79 + 54.027 c80 + 21.827 c81 + 5.617 c82 + 15.918 c83 + 8.923 c84 + 19.069 c85 + 52.344 c86 + 4.322 c87 + 123.263 c88 + 36.977 c89 + 19.652 c90 + 13.944 c91 + 25.776 c92 + 12.729 c93 + 129.005 c94 + 8.815 c95 + 4.852 c96 + 5.821 c97 + 52.519 c98 + 6.021 c99 + 92.946 c100 + 9.768 c101 + 3.091 c102 + 11.308 c103 + 13.297 c104 + 25.492 c105 + 8.025 c106 + 8.364 c107 + 9.786 c108 + 2.444 c109 + 38.95 c110 + 8.982 c111 + 2.983 c112 + 12.89 c113 + 23.087 c114 + 4.482 c115 + 8.482 c116 + 28.73 c117 + 5.23 c118 + 37.02 c119 + 5.897 c120 + 103.391 c121 + 142.929 c122 + 9.108 c123 + 4.411 c124 + 76.851 c125 + 14.85 c126 + 2.247 c127 + 42.109 c128 + 103.121 c129 + 211.22 c130 + 55.437 c131 + 12.33 c132 + 5.526 c133 + 29.466 c134 + 10.886 c135 + 33.819 c136 + 20.276 c137 + 22.972 c138 + 2.888 c139 + 18.004 c140 + 10.98 c141 + 7.856 c142 + 2.236 c143 + 21.357 c144 + 5.806 c145 + 16.108 c146 + 9.51 c147 + 11.921 c148 + 12.76 c149 + 9.118 c150 + 207.149 c151 + 3.301 c152 + 35.181 c153 + 7.823 c154 + 15.19 c155 + 7.27 c156 + 7.782 c157 + 33.941 c158 + 27.798 c159 + 243.838 c160 + 176.952 c161 + 5.506 c162 + 9.254 c163 + 5.645 c164 + 5.855 c165

Subject To
index_0: s78 + s80 + s84 + s87 + s92 + s94 + s97 + s101 - c0 >= 0
index_1: s14 + s15 + s16 + s79 + s82 + s85 + s88 + s93 + s98 + s102 + s133 - c1 >= 0
index_2: s20 + s21 + s34 + s39 + s49 + s50 + s64 + s69 + s77 + s79 + s82 + s83 + s85 + s86 + s88 + s91 + s93 + s96 + s98 + s100 + s102 - c2 >= 0
index_3: s25 + s75 + s76 + s83 + s86 + s90 + s96 + s99 + s100 - c3 >= 0
index_4: s36 + s39 + s41 + s42 + s66 + s69 + s71 + s73 - c4 >= 0
index_5: s27 + s80 + s81 + s82 + s94 + s95 + s104 + s132 - c5 >= 0
index_6: s23 + s24 + s29 + s76 + s77 + s79 + s90 + s91 + s93 + s132 - c6 >= 0
index_7: s14 + s15 + s16 + s79 + s82 + s85 + s88 + s93 + s98 + s102 + s133 - c7 >= 0
index_8: s14 + s15 + s16 + s22 + s79 + s82 + s85 + s88 + s93 + s98 + s102 + s105 + s133 - c8 >= 0
index_9: s18 + s19 + s47 + s48 + s109 + s110 + s112 - c9 >= 0
index_10: s14 + s15 + s16 + s79 + s82 + s85 + s88 + s93 + s98 + s102 + s133 - c10 >= 0
index_11: s25 + s76 + s78 + s83 + s86 + s90 + s92 + s96 + s99 + s100 - c11 >= 0
index_12: s8 + s22 + s26 + s38 + s40 + s41 + s42 + s51 + s55 + s68 + s70 + s71 + s73 + s78 + s92 - c12 >= 0
index_13: s24 + s25 + s76 + s77 + s78 + s83 + s85 + s86 + s90 + s91 + s92 + s96 + s98 + s99 + s100 + s107 - c13 >= 0
index_14: s24 + s25 + s76 + s77 + s78 + s83 + s85 + s86 + s90 + s91 + s92 + s96 + s98 + s99 + s100 + s107 - c14 >= 0
index_15: s39 + s43 + s69 + s74 + s88 + s102 + s130 + s131 - c15 >= 0
index_16: s14 + s15 + s16 + s79 + s82 + s85 + s88 + s93 + s98 + s102 + s107 + s108 + s133 - c16 >= 0
index_17: s37 + s38 + s39 + s67 + s68 + s69 - c17 >= 0
index_18: s15 + s19 + s29 + s43 + s48 + s59 + s74 + s76 + s81 + s83 + s85 + s88 + s90 + s95 + s96 + s98 + s102 + s104 + s107 + s112 + s133 - c18 >= 0
index_19: s4 + s16 + s19 + s29 + s45 + s48 + s59 + s104 + s106 - c19 >= 0
index_20: s24 + s26 + s34 + s37 + s38 + s39 + s42 + s53 + s55 + s64 + s67 + s68 + s69 + s73 - c20 >= 0
index_21: s4 + s16 + s19 + s45 + s48 + s59 + s104 + s106 - c21 >= 0
index_22: s18 + s19 + s47 + s48 + s109 + s110 + s112 - c22 >= 0
index_23: s28 + s38 + s39 + s58 + s68 + s69 + s85 + s88 + s98 + s102 + s132 - c23 >= 0
index_24: s16 + s38 + s39 + s43 + s68 + s69 + s74 - c24 >= 0
index_25: s4 + s16 + s19 + s29 + s45 + s48 + s59 + s104 + s106 - c25 >= 0
index_26: s4 + s16 + s19 + s29 + s45 + s48 + s59 + s104 + s106 - c26 >= 0
index_27: s12 + s16 + s23 + s28 + s29 + s34 + s37 + s41 + s44 + s52 + s59 + s64 + s67 + s71 + s75 - c27 >= 0
index_28: s18 + s27 + s36 + s41 + s42 + s57 + s66 + s71 + s73 - c28 >= 0
index_29: s22 + s26 + s28 + s29 + s31 + s32 + s42 + s51 + s55 + s58 + s59 + s61 + s62 + s73 + s76 + s78 + s80 + s90 + s92 + s94 - c29 >= 0
index_30: s15 + s18 + s19 + s23 + s24 + s25 + s28 + s30 + s31 + s32 + s39 + s69 + s76 + s77 + s78 + s83 + s90 + s91 + s92 + s96 + s104 + s105 + s107 + s109 + s110 + s112 + s132 + s133 - c30 >= 0
index_31: s105 + s107 + s108 + s110 - c31 >= 0
index_32: s36 + s39 + s41 + s42 + s66 + s69 + s71 + s73 - c32 >= 0
index_33: s37 + s38 + s39 + s41 + s67 + s68 + s69 + s71 - c33 >= 0
index_34: s34 + s36 + s64 + s66 - c34 >= 0
index_35: s38 + s68 + s83 + s85 + s96 + s98 + s126 + s128 + s132 - c35 >= 0
index_36: s27 + s28 + s32 + s57 + s58 + s62 - c36 >= 0
index_37: s27 + s28 + s32 + s57 + s58 + s62 - c37 >= 0
index_38: s16 + s38 + s39 + s43 + s68 + s69 + s74 - c38 >= 0
index_39: s8 + s11 + s116 + s117 + s118 + s126 - c39 >= 0
index_40: s16 + s26 + s55 + s76 + s77 + s81 + s83 + s86 + s90 + s91 + s95 + s96 + s100 + s112 + s113 + s114 + s127 + s128 + s129 + s131 + s132 - c40 >= 0
index_41: s15 + s19 + s25 + s48 + s76 + s81 + s83 + s86 + s90 + s95 + s96 + s100 + s104 + s112 + s133 - c41 >= 0
index_42: s16 + s20 + s43 + s76 + s90 + s106 + s112 + s132 - c42 >= 0
index_43: s38 + s68 + s83 + s85 + s96 + s98 + s128 + s132 - c43 >= 0
index_44: s5 + s6 + s11 + s112 + s119 + s120 + s123 + s124 + s125 + s126 + s129 - c44 >= 0
index_45: s12 + s14 + s108 + s112 + s114 - c45 >= 0
index_46: s3 + s4 + s116 + s117 + s118 + s120 - c46 >= 0
index_47: s5 + s6 + s10 + s12 + s14 + s15 + s16 + s17 + s18 + s22 + s23 + s24 + s28 + s29 + s30 + s32 + s33 + s34 + s35 + s36 + s38 + s40 + s41 + s42 + s43 + s44 + s45 + s46 + s53 + s63 + s64 + s65 + s66 + s67 + s68 + s71 + s72 + s75 + s76 + s77 + s80 + s89 + s90 + s94 + s103 + s104 + s105 + s106 + s107 + s108 + s109 + s110 + s112 + s113 + s114 + s116 + s120 + s123 + s125 + s126 + s127 + s128 + s129 + s130 + s131 + s132 + s133 - c47 >= 0
index_48: s25 + s26 + s78 + s80 + s81 + s84 + s87 + s92 + s94 + s95 + s97 + s101 - c48 >= 0
index_49: s38 + s39 + s43 + s68 + s69 + s74 - c49 >= 0
index_50: s43 + s74 + s85 + s88 + s98 + s102 - c50 >= 0
index_51: s15 + s77 + s91 + s108 + s111 + s114 + s127 + s132 - c51 >= 0
index_52: s48 + s51 + s52 + s54 + s55 + s56 + s57 + s58 + s59 + s61 + s62 - c52 >= 0
index_53: s16 + s18 + s19 + s37 + s45 + s47 + s48 + s67 - c53 >= 0
index_54: s0 + s1 + s2 + s3 + s4 + s8 + s9 + s11 + s37 + s44 + s46 + s47 + s60 + s99 + s114 + s117 + s118 + s119 + s121 + s122 + s124 - c54 >= 0
index_55: s13 + s27 + s31 + s63 + s70 + s74 + s111 + s126 - c55 >= 0
index_56: s14 + s15 + s16 + s21 + s67 + s79 + s82 + s85 + s88 + s93 + s98 + s102 + s130 + s133 - c56 >= 0
index_57: s45 - c57 >= 0
index_58: s16 + s21 + s45 + s50 - c58 >= 0
index_59: s12 + s16 + s41 + s45 - c59 >= 0
index_60: s79 + s81 + s82 + s85 + s88 + s93 + s95 + s98 + s102 + s113 + s114 + s127 + s132 + s133 - c60 >= 0
index_61: s16 + s41 + s71 - c61 >= 0
index_62: s16 + s41 + s71 - c62 >= 0
index_63: s14 + s116 + s117 - c63 >= 0
index_64: s76 + s77 + s81 + s83 + s86 + s90 + s91 + s95 + s96 + s100 + s132 - c64 >= 0
index_65: s16 + s38 + s39 + s43 + s68 + s69 + s74 - c65 >= 0
index_66: s18 + s47 - c66 >= 0
index_67: s12 + s104 + s105 + s110 + s112 + s113 - c67 >= 0
index_68: s78 + s83 + s86 + s92 + s96 + s100 - c68 >= 0
index_69: s28 + s32 + s44 + s58 + s62 + s75 + s110 - c69 >= 0
index_70: s22 + s24 + s25 + s27 + s29 + s31 + s33 + s36 + s38 + s42 + s44 + s57 + s59 + s66 + s68 + s72 + s73 + s75 + s77 + s88 + s91 + s102 + s106 - c70 >= 0
index_71: s16 + s23 + s29 + s52 + s59 + s67 + s76 + s90 + s112 - c71 >= 0
index_72: s6 + s7 + s14 + s15 + s118 + s126 + s127 + s128 + s130 + s131 + s132 + s133 - c72 >= 0
index_73: s13 + s107 + s128 + s131 + s132 - c73 >= 0
index_74: s24 + s25 + s28 + s33 + s39 + s63 + s69 + s76 + s77 + s78 + s83 + s85 + s86 + s88 + s90 + s91 + s92 + s96 + s98 + s99 + s100 + s102 + s107 + s132 - c74 >= 0
index_75: s76 + s112 + s113 - c75 >= 0
index_76: s106 + s108 + s116 + s124 - c76 >= 0
index_77: s76 + s86 + s90 + s100 + s128 + s131 + s132 - c77 >= 0
index_78: s2 - c78 >= 0
index_79: s3 + s9 - c79 >= 0
index_80: s47 + s52 + s53 + s54 + s58 + s60 + s61 + s62 - c80 >= 0
index_81: s16 + s28 + s31 + s32 + s33 + s67 + s126 + s127 + s128 + s129 + s132 - c81 >= 0
index_82: s0 + s1 + s2 + s3 + s114 + s115 + s117 - c82 >= 0
index_83: s115 + s116 + s117 - c83 >= 0
index_84: s115 - c84 >= 0
index_85: s16 + s23 + s24 + s27 + s29 + s30 + s37 + s67 + s76 + s79 + s80 + s81 + s82 + s90 + s93 + s94 + s95 + s132 - c85 >= 0
index_86: s24 + s28 + s32 + s53 + s58 + s62 - c86 >= 0
index_87: s12 + s14 + s34 + s64 + s107 + s108 + s112 - c87 >= 0
index_88: s3 + s83 + s86 + s96 + s100 + s105 - c88 >= 0
index_89: s34 + s36 + s37 + s38 + s64 + s66 + s67 + s68 + s80 + s81 + s94 + s95 + s106 + s108 + s127 + s130 + s132 - c89 >= 0
index_90: s38 + s39 + s43 + s68 + s69 + s85 + s88 + s98 + s102 + s105 + s106 + s130 - c90 >= 0
index_91: s43 + s66 + s74 + s131 - c91 >= 0
index_92: s16 + s18 + s19 + s20 + s23 + s24 + s25 + s27 + s28 + s29 + s30 + s31 + s32 + s33 + s34 + s36 + s37 + s38 + s39 + s41 + s42 + s43 + s44 + s63 + s64 + s66 + s67 + s68 + s69 + s71 + s72 + s73 + s74 + s75 + s76 + s77 + s90 + s112 - c92 >= 0
index_93: s43 + s74 + s114 + s131 - c93 >= 0
index_94: s39 + s43 + s69 + s74 + s88 + s102 + s130 + s131 - c94 >= 0
index_95: s43 + s44 + s74 + s75 + s86 - c95 >= 0
index_96: s105 + s108 + s110 + s113 + s114 - c96 >= 0
index_97: s25 + s31 + s41 + s71 + s76 + s90 - c97 >= 0
index_98: s13 + s110 + s123 + s128 + s131 - c98 >= 0
index_99: s23 + s24 + s28 + s29 + s30 + s31 + s32 + s52 + s53 + s55 + s59 + s60 + s107 - c99 >= 0
index_100: s53 + s54 + s55 - c100 >= 0
index_101: s118 + s125 - c101 >= 0
index_102: s8 + s11 + s12 + s123 - c102 >= 0
index_103: s4 + s5 + s6 + s7 + s8 + s11 + s12 + s108 + s114 + s118 + s120 + s123 + s126 + s127 + s129 + s130 - c103 >= 0
index_104: s49 + s52 + s53 + s54 + s55 + s56 + s57 + s58 + s59 + s60 + s61 + s62 + s63 - c104 >= 0
index_105: s54 + s56 - c105 >= 0
index_106: s44 + s75 + s76 + s90 + s104 + s106 + s107 + s114 - c106 >= 0
index_107: s15 + s108 + s112 - c107 >= 0
index_108: s23 + s29 + s38 + s42 + s43 + s44 + s68 + s73 + s74 + s75 + s80 + s94 - c108 >= 0
index_109: s76 + s77 + s83 + s86 + s90 + s91 + s96 + s100 + s105 + s107 + s109 + s113 - c109 >= 0
index_110: s14 + s15 + s19 + s29 + s48 + s59 + s104 + s105 + s107 + s108 + s120 + s133 - c110 >= 0
index_111: s8 + s119 + s123 - c111 >= 0
index_112: s121 + s122 - c112 >= 0
index_113: s28 + s31 + s32 + s58 + s61 + s62 - c113 >= 0
index_114: s36 + s37 + s38 + s66 + s67 + s68 - c114 >= 0
index_115: s4 + s19 + s22 + s48 + s104 + s106 - c115 >= 0
index_116: s22 + s43 + s51 + s74 + s86 + s100 - c116 >= 0
index_117: s15 + s25 + s26 + s38 + s55 + s68 + s76 + s77 + s79 + s82 + s83 + s86 + s90 + s91 + s93 + s96 + s100 + s113 + s130 + s131 + s132 + s133 - c117 >= 0
index_118: s7 + s12 + s108 + s114 + s123 - c118 >= 0
index_119: s12 + s14 + s108 + s114 - c119 >= 0
index_120: s24 + s29 + s36 + s38 + s42 + s66 + s67 + s68 + s69 + s73 + s76 + s77 + s78 + s79 + s80 + s82 + s90 + s91 + s92 + s93 + s94 + s132 - c120 >= 0
index_121: s0 + s5 + s6 + s10 + s11 + s12 + s15 + s36 + s81 + s88 + s95 + s102 + s105 + s106 + s108 + s109 + s112 + s113 + s115 + s118 + s120 + s123 + s127 + s128 + s129 + s132 - c121 >= 0
index_122: s22 + s23 + s28 + s32 + s33 + s34 + s37 + s38 + s41 + s51 + s52 + s63 + s64 + s68 + s71 + s72 + s76 + s90 - c122 >= 0
index_123: s33 + s63 - c123 >= 0
index_124: s16 + s21 + s33 + s34 + s36 + s50 + s63 + s64 + s66 + s68 - c124 >= 0
index_125: s38 + s43 + s56 + s74 - c125 >= 0
index_126: s5 + s6 + s11 + s119 + s124 + s125 + s126 + s127 + s128 + s129 + s132 - c126 >= 0
index_127: s22 + s38 + s51 + s61 - c127 >= 0
index_128: s18 + s26 + s33 + s34 + s37 + s38 + s43 + s55 + s64 + s67 + s68 + s74 + s76 + s83 + s86 + s90 + s91 + s96 + s100 - c128 >= 0
index_129: s23 + s25 + s30 + s34 + s36 + s38 + s41 + s43 + s52 + s60 + s64 + s66 + s68 + s71 + s72 + s74 + s132 - c129 >= 0
index_130: s68 + s69 + s77 + s78 + s80 + s86 + s91 + s92 + s94 + s100 - c130 >= 0
index_131: s12 + s14 + s108 + s114 - c131 >= 0
index_132: s52 + s53 + s57 + s60 + s61 + s73 - c132 >= 0
index_133: s23 + s30 + s52 + s59 + s60 - c133 >= 0
index_134: s3 + s5 + s6 + s7 + s11 + s12 + s107 + s114 + s119 + s121 + s123 + s125 - c134 >= 0
index_135: s8 + s9 - c135 >= 0
index_136: s7 + s9 - c136 >= 0
index_137: s36 + s37 + s66 + s67 + s132 - c137 >= 0
index_138: s7 + s12 + s14 + s108 + s114 + s123 - c138 >= 0
index_139: s27 + s37 + s57 + s67 + s72 + s109 - c139 >= 0
index_140: s9 + s121 + s125 - c140 >= 0
index_141: s40 + s68 + s70 + s71 + s132 - c141 >= 0
index_142: s33 + s34 + s36 + s39 + s41 + s42 + s63 + s64 + s66 + s69 + s71 + s72 + s73 - c142 >= 0
index_143: s16 + s19 + s20 + s22 + s23 + s27 + s28 + s29 + s30 + s31 + s32 + s33 + s34 + s36 + s37 + s38 + s41 + s48 + s49 + s51 + s52 + s57 + s58 + s59 + s60 + s61 + s62 + s63 + s64 + s66 + s67 + s71 + s72 - c143 >= 0
index_144: s43 + s74 + s81 + s88 + s95 + s102 + s108 + s130 + s131 + s132 - c144 >= 0
index_145: s14 + s15 + s104 + s117 + s118 + s128 + s129 - c145 >= 0
index_146: s9 + s10 + s11 + s105 + s120 + s125 + s126 - c146 >= 0
index_147: s3 + s15 + s32 + s80 + s83 + s85 + s94 + s96 + s98 + s107 + s112 + s127 + s128 + s129 + s132 - c147 >= 0
index_148: s7 + s10 + s11 + s114 + s119 + s124 + s125 + s128 - c148 >= 0
index_149: s5 + s10 + s12 + s119 + s124 + s125 + s128 + s129 - c149 >= 0
index_150: s7 + s10 + s11 + s119 + s123 + s124 + s125 + s128 + s129 - c150 >= 0
index_151: s6 + s11 + s105 + s119 - c151 >= 0
index_152: s38 + s42 + s71 + s73 + s132 - c152 >= 0
index_153: s3 - c153 >= 0
index_154: s3 + s7 + s107 - c154 >= 0
index_155: s119 + s123 + s126 + s128 - c155 >= 0
index_156: s34 + s40 + s64 + s70 - c156 >= 0
index_157: s40 + s70 - c157 >= 0
index_158: s6 + s7 + s10 + s11 + s119 - c158 >= 0
index_159: s7 + s10 + s11 + s119 + s126 - c159 >= 0
index_160: s14 + s105 + s108 + s114 + s123 - c160 >= 0
index_161: s25 + s28 + s29 + s38 + s54 + s58 + s59 + s68 + s76 + s83 + s85 + s90 + s96 + s98 + s119 + s125 + s128 + s132 - c161 >= 0
index_162: s6 + s9 + s10 + s11 + s12 + s118 + s119 + s121 + s122 + s125 + s126 - c162 >= 0
index_163: s10 + s11 + s120 + s124 + s125 + s126 + s132 - c163 >= 0
index_164: s10 + s118 + s125 + s130 - c164 >= 0
index_165: s14 + s15 + s81 + s95 + s112 + s128 + s129 + s130 + s131 + s132 + s133 - c165 >= 0
length: s0 + s1 + s2 + s3 + s4 + s5 + s6 + s7 + s8 + s9 + s10 + s11 + s12 + s13 + s14 + s15 + s16 + s17 + s18 + s19 + s20 + s21 + s22 + s23 + s24 + s25 + s26 + s27 + s28 + s29 + s30 + s31 + s32 + s33 + s34 + s35 + s36 + s37 + s38 + s39 + s40 + s41 + s42 + s43 + s44 + s45 + s46 + s47 + s48 + s49 + s50 + s51 + s52 + s53 + s54 + s55 + s56 + s57 + s58 + s59 + s60 + s61 + s62 + s63 + s64 + s65 + s66 + s67 + s68 + s69 + s70 + s71 + s72 + s73 + s74 + s75 + s76 + s77 + s78 + s79 + s80 + s81 + s82 + s83 + s84 + s85 + s86 + s87 + s88 + s89 + s90 + s91 + s92 + s93 + s94 + s95 + s96 + s97 + s98 + s99 + s100 + s101 + s102 + s103 + s104 + s105 + s106 + s107 + s108 + s109 + s110 + s111 + s112 + s113 + s114 + s115 + s116 + s117 + s118 + s119 + s120 + s121 + s122 + s123 + s124 + s125 + s126 + s127 + s128 + s129 + s130 + s131 + s132 + s133 <= 7



Binary
c0
c1
c2
c3
c4
c5
c6
c7
c8
c9
c10
c11
c12
c13
c14
c15
c16
c17
c18
c19
c20
c21
c22
c23
c24
c25
c26
c27
c28
c29
c30
c31
c32
c33
c34
c35
c36
c37
c38
c39
c40
c41
c42
c43
c44
c45
c46
c47
c48
c49
c50
c51
c52
c53
c54
c55
c56
c57
c58
c59
c60
c61
c62
c63
c64
c65
c66
c67
c68
c69
c70
c71
c72
c73
c74
c75
c76
c77
c78
c79
c80
c81
c82
c83
c84
c85
c86
c87
c88
c89
c90
c91
c92
c93
c94
c95
c96
c97
c98
c99
c100
c101
c102
c103
c104
c105
c106
c107
c108
c109
c110
c111
c112
c113
c114
c115
c116
c117
c118
c119
c120
c121
c122
c123
c124
c125
c126
c127
c128
c129
c130
c131
c132
c133
c134
c135
c136
c137
c138
c139
c140
c141
c142
c143
c144
c145
c146
c147
c148
c149
c150
c151
c152
c153
c154
c155
c156
c157
c158
c159
c160
c161
c162
c163
c164
c165
s0
s1
s2
s3
s4
s5
s6
s7
s8
s9
s10
s11
s12
s13
s14
s15
s16
s17
s18
s19
s20
s21
s22
s23
s24
s25
s26
s27
s28
s29
s30
s31
s32
s33
s34
s35
s36
s37
s38
s39
s40
s41
s42
s43
s44
s45
s46
s47
s48
s49
s50
s51
s52
s53
s54
s55
s56
s57
s58
s59
s60
s61
s62
s63
s64
s65
s66
s67
s68
s69
s70
s71
s72
s73
s74
s75
s76
s77
s78
s79
s80
s81
s82
s83
s84
s85
s86
s87
s88
s89
s90
s91
s92
s93
s94
s95
s96
s97
s98
s99
s100
s101
s102
s103
s104
s105
s106
s107
s108
s109
s110
s111
s112
s113
s114
s115
s116
s117
s118
s119
s120
s121
s122
s123
s124
s125
s126
s127
s128
s129
s130
s131
s132
s133
End